words_hard_train/3304.qaiger
aag 39 14 0 1 25
2
4
8
10
16
18
22
24
32
34
38
46
48
54
79
6 2 5
12 9 10
14 7 13
20 17 18
26 22 25
28 16 19
30 27 29
36 33 34
40 37 38
42 23 24
44 40 43
50 47 48
52 46 49
56 53 55
58 51 57
60 32 35
62 59 61
64 44 63
66 30 65
68 21 67
70 3 4
72 68 71
74 14 73
76 8 11
78 75 77
i0 1 x2[6]
i1 2 y1[6]
i2 1 x2[7]
i3 2 y1[7]
i4 1 x2[5]
i5 2 y1[5]
i6 1 x2[4]
i7 2 y1[4]
i8 1 x2[2]
i9 2 y1[2]
i10 1 x2[3]
i11 1 x2[0]
i12 2 y1[1]
i13 1 x2[1]
o0 bv[0]
c
simplified
  <
    1 x2
    or
      or
        1
        2 y1
      << 3
        1
