words_hard_train/3304.qaiger.qdimacs
p cnf 39 76
a 1 4 8 11 16 19 23 27 0
e 2 3 5 6 7 9 10 12 13 14 15 17 18 20 21 22 24 25 26 28 29 30 31 32 33 34 35 36 37 38 39 0
-1 2 3 0
1 -3 0
-2 -3 0
4 -5 6 0
-4 -6 0
5 -6 0
3 6 7 0
-3 -7 0
-6 -7 0
8 -9 10 0
-8 -10 0
9 -10 0
-11 12 13 0
11 -13 0
-12 -13 0
-8 9 14 0
8 -14 0
-9 -14 0
13 14 15 0
-13 -15 0
-14 -15 0
16 -17 18 0
-16 -18 0
17 -18 0
18 -19 20 0
-18 -20 0
19 -20 0
11 -12 21 0
-11 -21 0
12 -21 0
-20 21 22 0
20 -22 0
-21 -22 0
23 -24 25 0
-23 -25 0
24 -25 0
-23 24 26 0
23 -26 0
-24 -26 0
26 27 28 0
-26 -28 0
-27 -28 0
25 28 29 0
-25 -29 0
-28 -29 0
-16 17 30 0
16 -30 0
-17 -30 0
29 30 31 0
-29 -31 0
-30 -31 0
-22 31 32 0
22 -32 0
-31 -32 0
-15 32 33 0
15 -33 0
-32 -33 0
10 33 34 0
-10 -34 0
-33 -34 0
1 -2 35 0
-1 -35 0
2 -35 0
-34 35 36 0
34 -36 0
-35 -36 0
-7 36 37 0
7 -37 0
-36 -37 0
-4 5 38 0
4 -38 0
-5 -38 0
37 38 39 0
-37 -39 0
-38 -39 0
-39 0
